coords = array2d(1..50, 1..2, [900, 541, 393, 616, 483, 130, 675, 941, 247,
    760, 855, 143, 693, 564, 451, 783, 157, 611, 514, 339, 852, 104,
    742, 465, 670, 523, 751, 475, 196, 349, 959, 634, 591, 673, 51,
    919, 807, 111, 780, 726, 91, 26, 202, 362, 271, 474, 866, 474,
    798, 757, 484, 561, 20, 316, 693, 624, 249, 700, 177, 146, 821,
    691, 874, 493, 372, 265, 529, 969, 173, 550, 764, 472, 247, 942,
    967, 926, 140, 701, 767, 283, 787, 320, 83, 514, 382, 231, 952,
    96, 858, 212, 193, 21, 340, 379, 99, 888, 870, 636, 958, 851]);

n = 50;

